NAME: cuum960.tsp
TYPE: TSP
COMMENT: User-generated TSP file
DIMENSION: 960
EDGE_WEIGHT_TYPE: EUC_2D
NODE_COORD_SECTION
1 894.0 6.0
2 738.0 269.0
3 114.0 333.0
4 668.0 849.0
5 171.0 408.0
6 3.0 725.0
7 417.0 327.0
8 548.0 436.0
9 579.0 618.0
10 915.0 329.0
11 247.0 85.0
12 874.0 219.0
13 882.0 608.0
14 468.0 27.0
15 81.0 735.0
16 552.0 539.0
17 95.0 39.0
18 256.0 916.0
19 638.0 51.0
20 22.0 842.0
21 811.0 401.0
22 304.0 124.0
23 17.0 798.0
24 946.0 645.0
25 13.0 662.0
26 98.0 892.0
27 131.0 855.0
28 919.0 139.0
29 308.0 945.0
30 107.0 405.0
31 450.0 768.0
32 425.0 200.0
33 569.0 330.0
34 528.0 161.0
35 475.0 785.0
36 424.0 585.0
37 400.0 852.0
38 706.0 368.0
39 139.0 60.0
40 847.0 416.0
41 667.0 63.0
42 4.0 466.0
43 933.0 186.0
44 469.0 588.0
45 192.0 193.0
46 954.0 580.0
47 214.0 478.0
48 825.0 871.0
49 373.0 380.0
50 677.0 556.0
51 467.0 406.0
52 955.0 377.0
53 224.0 538.0
54 569.0 512.0
55 307.0 96.0
56 424.0 573.0
57 694.0 530.0
58 945.0 192.0
59 518.0 269.0
60 106.0 459.0
61 139.0 713.0
62 823.0 553.0
63 478.0 935.0
64 93.0 39.0
65 943.0 903.0
66 357.0 534.0
67 835.0 400.0
68 226.0 675.0
69 127.0 648.0
70 946.0 760.0
71 507.0 421.0
72 913.0 105.0
73 280.0 685.0
74 138.0 39.0
75 894.0 384.0
76 762.0 746.0
77 539.0 572.0
78 497.0 248.0
79 79.0 531.0
80 245.0 143.0
81 72.0 795.0
82 279.0 458.0
83 928.0 78.0
84 61.0 70.0
85 865.0 695.0
86 807.0 657.0
87 388.0 624.0
88 707.0 627.0
89 641.0 340.0
90 809.0 738.0
91 527.0 946.0
92 440.0 500.0
93 323.0 602.0
94 842.0 388.0
95 435.0 902.0
96 268.0 37.0
97 598.0 739.0
98 60.0 318.0
99 201.0 139.0
100 855.0 790.0
101 703.0 949.0
102 622.0 408.0
103 566.0 338.0
104 884.0 931.0
105 387.0 717.0
106 777.0 628.0
107 58.0 337.0
108 117.0 678.0
109 619.0 671.0
110 352.0 373.0
111 951.0 441.0
112 303.0 821.0
113 786.0 67.0
114 198.0 462.0
115 640.0 690.0
116 290.0 703.0
117 870.0 136.0
118 636.0 752.0
119 34.0 935.0
120 297.0 315.0
121 667.0 582.0
122 740.0 341.0
123 633.0 664.0
124 90.0 435.0
125 541.0 67.0
126 406.0 850.0
127 171.0 503.0
128 828.0 735.0
129 958.0 768.0
130 90.0 411.0
131 783.0 389.0
132 242.0 595.0
133 374.0 109.0
134 756.0 477.0
135 234.0 898.0
136 258.0 700.0
137 895.0 806.0
138 791.0 493.0
139 760.0 693.0
140 229.0 215.0
141 754.0 516.0
142 895.0 130.0
143 496.0 357.0
144 190.0 448.0
145 513.0 53.0
146 908.0 211.0
147 219.0 150.0
148 15.0 148.0
149 798.0 891.0
150 44.0 78.0
151 875.0 512.0
152 317.0 233.0
153 456.0 262.0
154 316.0 679.0
155 127.0 805.0
156 551.0 704.0
157 563.0 381.0
158 622.0 677.0
159 912.0 433.0
160 941.0 424.0
161 498.0 475.0
162 781.0 279.0
163 206.0 362.0
164 750.0 816.0
165 338.0 314.0
166 576.0 310.0
167 381.0 457.0
168 564.0 46.0
169 693.0 939.0
170 518.0 821.0
171 674.0 624.0
172 953.0 590.0
173 577.0 118.0
174 244.0 41.0
175 549.0 560.0
176 449.0 855.0
177 591.0 662.0
178 18.0 865.0
179 237.0 452.0
180 441.0 326.0
181 703.0 366.0
182 483.0 33.0
183 737.0 249.0
184 432.0 403.0
185 778.0 190.0
186 142.0 322.0
187 645.0 847.0
188 653.0 591.0
189 408.0 620.0
190 522.0 603.0
191 813.0 376.0
192 894.0 887.0
193 506.0 406.0
194 553.0 877.0
195 802.0 886.0
196 703.0 628.0
197 415.0 607.0
198 134.0 597.0
199 959.0 879.0
200 843.0 278.0
201 523.0 828.0
202 910.0 323.0
203 934.0 584.0
204 270.0 31.0
205 949.0 139.0
206 91.0 119.0
207 484.0 89.0
208 232.0 382.0
209 265.0 30.0
210 849.0 5.0
211 159.0 613.0
212 382.0 261.0
213 627.0 245.0
214 82.0 690.0
215 793.0 296.0
216 123.0 114.0
217 695.0 958.0
218 746.0 915.0
219 821.0 519.0
220 425.0 602.0
221 232.0 140.0
222 461.0 312.0
223 936.0 607.0
224 14.0 628.0
225 558.0 145.0
226 439.0 622.0
227 932.0 852.0
228 944.0 805.0
229 424.0 662.0
230 121.0 752.0
231 451.0 885.0
232 160.0 468.0
233 171.0 673.0
234 880.0 767.0
235 822.0 97.0
236 871.0 580.0
237 365.0 726.0
238 618.0 437.0
239 130.0 62.0
240 323.0 356.0
241 518.0 117.0
242 6.0 739.0
243 547.0 80.0
244 641.0 521.0
245 246.0 130.0
246 594.0 932.0
247 764.0 89.0
248 735.0 899.0
249 792.0 226.0
250 949.0 709.0
251 590.0 203.0
252 783.0 82.0
253 572.0 246.0
254 304.0 472.0
255 28.0 908.0
256 870.0 11.0
257 574.0 406.0
258 573.0 93.0
259 518.0 858.0
260 404.0 866.0
261 339.0 416.0
262 507.0 253.0
263 294.0 90.0
264 473.0 499.0
265 439.0 563.0
266 441.0 317.0
267 4.0 742.0
268 503.0 581.0
269 202.0 47.0
270 804.0 114.0
271 141.0 558.0
272 79.0 371.0
273 481.0 32.0
274 116.0 568.0
275 361.0 704.0
276 835.0 548.0
277 953.0 662.0
278 428.0 885.0
279 672.0 765.0
280 115.0 882.0
281 264.0 650.0
282 844.0 208.0
283 96.0 386.0
284 76.0 26.0
285 703.0 496.0
286 866.0 769.0
287 674.0 898.0
288 548.0 126.0
289 503.0 269.0
290 480.0 691.0
291 355.0 707.0
292 960.0 58.0
293 477.0 924.0
294 361.0 679.0
295 25.0 384.0
296 380.0 717.0
297 199.0 568.0
298 808.0 137.0
299 126.0 838.0
300 163.0 187.0
301 901.0 292.0
302 361.0 755.0
303 212.0 230.0
304 231.0 716.0
305 567.0 774.0
306 173.0 894.0
307 353.0 201.0
308 804.0 474.0
309 574.0 544.0
310 215.0 727.0
311 399.0 712.0
312 170.0 560.0
313 260.0 168.0
314 223.0 841.0
315 302.0 78.0
316 106.0 658.0
317 833.0 183.0
318 88.0 525.0
319 81.0 917.0
320 809.0 28.0
321 158.0 117.0
322 178.0 214.0
323 625.0 931.0
324 778.0 58.0
325 385.0 565.0
326 646.0 460.0
327 293.0 414.0
328 210.0 292.0
329 835.0 504.0
330 127.0 573.0
331 568.0 363.0
332 945.0 319.0
333 735.0 200.0
334 466.0 153.0
335 720.0 803.0
336 707.0 109.0
337 923.0 397.0
338 124.0 855.0
339 908.0 960.0
340 906.0 873.0
341 518.0 676.0
342 201.0 803.0
343 745.0 111.0
344 112.0 161.0
345 292.0 405.0
346 522.0 119.0
347 650.0 562.0
348 739.0 416.0
349 476.0 760.0
350 504.0 830.0
351 531.0 158.0
352 43.0 805.0
353 465.0 837.0
354 653.0 171.0
355 288.0 394.0
356 712.0 556.0
357 609.0 40.0
358 192.0 353.0
359 188.0 593.0
360 489.0 289.0
361 80.0 160.0
362 65.0 714.0
363 145.0 923.0
364 826.0 543.0
365 344.0 548.0
366 738.0 782.0
367 890.0 72.0
368 839.0 96.0
369 483.0 70.0
370 243.0 583.0
371 114.0 902.0
372 603.0 150.0
373 428.0 350.0
374 586.0 841.0
375 273.0 883.0
376 105.0 876.0
377 557.0 455.0
378 729.0 329.0
379 371.0 938.0
380 101.0 336.0
381 56.0 492.0
382 467.0 119.0
383 143.0 395.0
384 168.0 1.0
385 527.0 227.0
386 695.0 784.0
387 246.0 486.0
388 671.0 940.0
389 371.0 371.0
390 327.0 188.0
391 949.0 102.0
392 340.0 574.0
393 242.0 254.0
394 508.0 189.0
395 572.0 231.0
396 302.0 16.0
397 214.0 869.0
398 5.0 668.0
399 653.0 707.0
400 467.0 666.0
401 298.0 436.0
402 95.0 450.0
403 892.0 863.0
404 314.0 383.0
405 114.0 700.0
406 199.0 730.0
407 791.0 127.0
408 198.0 426.0
409 556.0 831.0
410 719.0 79.0
411 270.0 890.0
412 550.0 348.0
413 89.0 329.0
414 860.0 224.0
415 482.0 671.0
416 47.0 171.0
417 296.0 523.0
418 947.0 874.0
419 519.0 815.0
420 204.0 346.0
421 495.0 60.0
422 32.0 835.0
423 441.0 474.0
424 210.0 475.0
425 219.0 181.0
426 387.0 557.0
427 569.0 890.0
428 576.0 184.0
429 478.0 786.0
430 645.0 193.0
431 152.0 1.0
432 648.0 249.0
433 230.0 676.0
434 511.0 751.0
435 227.0 692.0
436 540.0 329.0
437 245.0 273.0
438 180.0 216.0
439 202.0 55.0
440 51.0 612.0
441 151.0 290.0
442 889.0 644.0
443 148.0 200.0
444 566.0 122.0
445 715.0 452.0
446 931.0 570.0
447 861.0 509.0
448 502.0 743.0
449 500.0 569.0
450 39.0 721.0
451 246.0 910.0
452 10.0 612.0
453 566.0 621.0
454 173.0 499.0
455 704.0 909.0
456 175.0 782.0
457 81.0 387.0
458 267.0 289.0
459 69.0 92.0
460 410.0 596.0
461 826.0 358.0
462 839.0 779.0
463 326.0 906.0
464 716.0 287.0
465 216.0 355.0
466 391.0 327.0
467 56.0 770.0
468 303.0 400.0
469 888.0 197.0
470 46.0 850.0
471 948.0 907.0
472 643.0 201.0
473 888.0 606.0
474 671.0 3.0
475 679.0 37.0
476 745.0 722.0
477 170.0 521.0
478 526.0 790.0
479 816.0 487.0
480 576.0 320.0
481 942.0 401.0
482 75.0 339.0
483 603.0 628.0
484 402.0 160.0
485 610.0 844.0
486 729.0 670.0
487 724.0 765.0
488 552.0 352.0
489 310.0 53.0
490 485.0 509.0
491 347.0 480.0
492 694.0 725.0
493 708.0 735.0
494 40.0 736.0
495 454.0 415.0
496 210.0 389.0
497 442.0 243.0
498 488.0 875.0
499 789.0 377.0
500 667.0 566.0
501 747.0 59.0
502 852.0 685.0
503 222.0 465.0
504 496.0 220.0
505 861.0 86.0
506 410.0 295.0
507 386.0 122.0
508 149.0 574.0
509 904.0 223.0
510 25.0 525.0
511 471.0 645.0
512 61.0 712.0
513 337.0 360.0
514 34.0 682.0
515 368.0 752.0
516 627.0 913.0
517 103.0 278.0
518 397.0 709.0
519 288.0 408.0
520 129.0 144.0
521 511.0 538.0
522 81.0 400.0
523 347.0 781.0
524 884.0 404.0
525 716.0 102.0
526 706.0 939.0
527 135.0 312.0
528 410.0 835.0
529 415.0 392.0
530 939.0 60.0
531 959.0 413.0
532 860.0 896.0
533 530.0 511.0
534 445.0 248.0
535 301.0 18.0
536 114.0 166.0
537 228.0 378.0
538 794.0 550.0
539 561.0 689.0
540 561.0 592.0
541 434.0 175.0
542 898.0 781.0
543 52.0 267.0
544 958.0 733.0
545 749.0 105.0
546 483.0 657.0
547 497.0 194.0
548 834.0 319.0
549 690.0 289.0
550 320.0 675.0
551 853.0 196.0
552 850.0 903.0
553 819.0 305.0
554 721.0 790.0
555 377.0 449.0
556 512.0 33.0
557 901.0 319.0
558 187.0 794.0
559 524.0 583.0
560 363.0 932.0
561 401.0 384.0
562 302.0 447.0
563 430.0 592.0
564 338.0 743.0
565 346.0 850.0
566 432.0 951.0
567 32.0 570.0
568 550.0 649.0
569 222.0 931.0
570 937.0 221.0
571 445.0 132.0
572 780.0 422.0
573 559.0 93.0
574 791.0 246.0
575 951.0 518.0
576 453.0 955.0
577 167.0 409.0
578 844.0 385.0
579 564.0 172.0
580 664.0 601.0
581 345.0 803.0
582 702.0 726.0
583 505.0 712.0
584 482.0 246.0
585 671.0 477.0
586 530.0 11.0
587 921.0 689.0
588 823.0 453.0
589 163.0 485.0
590 782.0 668.0
591 389.0 169.0
592 224.0 702.0
593 643.0 370.0
594 592.0 402.0
595 497.0 294.0
596 924.0 364.0
597 763.0 531.0
598 241.0 690.0
599 460.0 681.0
600 547.0 188.0
601 510.0 73.0
602 633.0 541.0
603 689.0 431.0
604 674.0 611.0
605 839.0 497.0
606 497.0 57.0
607 171.0 568.0
608 319.0 899.0
609 88.0 827.0
610 795.0 750.0
611 739.0 951.0
612 576.0 485.0
613 837.0 657.0
614 15.0 735.0
615 660.0 959.0
616 397.0 247.0
617 506.0 511.0
618 583.0 203.0
619 604.0 285.0
620 901.0 320.0
621 128.0 796.0
622 738.0 586.0
623 318.0 744.0
624 673.0 551.0
625 464.0 135.0
626 179.0 599.0
627 27.0 516.0
628 880.0 36.0
629 740.0 724.0
630 273.0 737.0
631 30.0 585.0
632 725.0 808.0
633 23.0 519.0
634 329.0 498.0
635 945.0 429.0
636 958.0 704.0
637 386.0 317.0
638 677.0 868.0
639 656.0 786.0
640 43.0 174.0
641 395.0 308.0
642 929.0 936.0
643 480.0 784.0
644 695.0 21.0
645 145.0 258.0
646 836.0 809.0
647 710.0 741.0
648 166.0 667.0
649 223.0 458.0
650 774.0 512.0
651 559.0 823.0
652 752.0 783.0
653 760.0 449.0
654 626.0 756.0
655 65.0 145.0
656 522.0 122.0
657 440.0 355.0
658 636.0 216.0
659 841.0 746.0
660 959.0 113.0
661 259.0 774.0
662 609.0 804.0
663 560.0 324.0
664 252.0 520.0
665 64.0 32.0
666 378.0 819.0
667 468.0 566.0
668 544.0 381.0
669 494.0 801.0
670 16.0 365.0
671 239.0 12.0
672 419.0 103.0
673 391.0 893.0
674 381.0 812.0
675 557.0 244.0
676 120.0 711.0
677 687.0 188.0
678 334.0 952.0
679 841.0 434.0
680 366.0 868.0
681 604.0 571.0
682 799.0 368.0
683 570.0 108.0
684 358.0 303.0
685 350.0 893.0
686 127.0 214.0
687 416.0 267.0
688 162.0 26.0
689 540.0 226.0
690 202.0 322.0
691 762.0 834.0
692 110.0 919.0
693 797.0 647.0
694 117.0 241.0
695 751.0 347.0
696 574.0 960.0
697 360.0 34.0
698 225.0 581.0
699 33.0 644.0
700 595.0 452.0
701 634.0 793.0
702 301.0 674.0
703 756.0 543.0
704 789.0 50.0
705 471.0 569.0
706 394.0 352.0
707 786.0 439.0
708 32.0 459.0
709 315.0 480.0
710 651.0 510.0
711 185.0 435.0
712 939.0 342.0
713 544.0 215.0
714 449.0 204.0
715 517.0 698.0
716 356.0 812.0
717 369.0 900.0
718 344.0 30.0
719 840.0 547.0
720 850.0 375.0
721 215.0 357.0
722 149.0 272.0
723 33.0 789.0
724 483.0 950.0
725 825.0 815.0
726 288.0 776.0
727 279.0 711.0
728 284.0 929.0
729 266.0 126.0
730 446.0 406.0
731 732.0 240.0
732 437.0 456.0
733 181.0 112.0
734 850.0 461.0
735 773.0 303.0
736 880.0 372.0
737 404.0 756.0
738 506.0 214.0
739 812.0 8.0
740 325.0 558.0
741 691.0 436.0
742 606.0 876.0
743 856.0 842.0
744 521.0 175.0
745 164.0 211.0
746 85.0 420.0
747 549.0 207.0
748 90.0 542.0
749 920.0 502.0
750 78.0 523.0
751 310.0 232.0
752 599.0 807.0
753 666.0 203.0
754 49.0 643.0
755 728.0 138.0
756 343.0 207.0
757 723.0 203.0
758 87.0 789.0
759 96.0 649.0
760 564.0 61.0
761 481.0 807.0
762 175.0 481.0
763 639.0 255.0
764 925.0 100.0
765 49.0 674.0
766 23.0 295.0
767 163.0 818.0
768 659.0 136.0
769 517.0 592.0
770 503.0 652.0
771 494.0 427.0
772 264.0 137.0
773 361.0 838.0
774 574.0 408.0
775 663.0 423.0
776 478.0 683.0
777 292.0 925.0
778 903.0 614.0
779 122.0 850.0
780 807.0 548.0
781 433.0 301.0
782 454.0 662.0
783 619.0 475.0
784 345.0 606.0
785 200.0 411.0
786 879.0 553.0
787 91.0 951.0
788 119.0 492.0
789 235.0 806.0
790 179.0 108.0
791 561.0 71.0
792 327.0 940.0
793 244.0 229.0
794 254.0 358.0
795 764.0 797.0
796 396.0 524.0
797 956.0 944.0
798 371.0 461.0
799 160.0 167.0
800 550.0 681.0
801 9.0 817.0
802 942.0 67.0
803 656.0 794.0
804 386.0 707.0
805 943.0 199.0
806 473.0 853.0
807 380.0 950.0
808 420.0 371.0
809 392.0 377.0
810 4.0 198.0
811 803.0 668.0
812 49.0 811.0
813 152.0 257.0
814 502.0 142.0
815 818.0 732.0
816 28.0 351.0
817 737.0 367.0
818 156.0 413.0
819 875.0 367.0
820 782.0 215.0
821 756.0 909.0
822 104.0 726.0
823 808.0 60.0
824 713.0 834.0
825 775.0 573.0
826 361.0 3.0
827 252.0 395.0
828 62.0 722.0
829 934.0 672.0
830 112.0 112.0
831 159.0 483.0
832 454.0 472.0
833 878.0 355.0
834 488.0 860.0
835 13.0 602.0
836 387.0 130.0
837 299.0 327.0
838 64.0 575.0
839 478.0 378.0
840 216.0 380.0
841 296.0 464.0
842 568.0 520.0
843 266.0 45.0
844 339.0 123.0
845 24.0 424.0
846 545.0 878.0
847 133.0 77.0
848 598.0 663.0
849 7.0 569.0
850 924.0 41.0
851 625.0 127.0
852 105.0 823.0
853 778.0 186.0
854 224.0 788.0
855 956.0 958.0
856 437.0 87.0
857 673.0 603.0
858 569.0 92.0
859 159.0 791.0
860 876.0 167.0
861 518.0 723.0
862 261.0 136.0
863 547.0 40.0
864 870.0 373.0
865 172.0 254.0
866 713.0 315.0
867 935.0 652.0
868 201.0 501.0
869 206.0 724.0
870 152.0 28.0
871 495.0 517.0
872 155.0 354.0
873 892.0 611.0
874 817.0 904.0
875 556.0 251.0
876 123.0 934.0
877 806.0 563.0
878 960.0 80.0
879 500.0 276.0
880 490.0 342.0
881 264.0 843.0
882 67.0 233.0
883 866.0 582.0
884 349.0 128.0
885 180.0 513.0
886 541.0 352.0
887 567.0 240.0
888 854.0 639.0
889 846.0 604.0
890 490.0 22.0
891 227.0 394.0
892 639.0 837.0
893 51.0 209.0
894 809.0 394.0
895 145.0 187.0
896 664.0 218.0
897 885.0 89.0
898 937.0 102.0
899 431.0 166.0
900 659.0 225.0
901 931.0 539.0
902 82.0 911.0
903 944.0 825.0
904 840.0 379.0
905 454.0 814.0
906 192.0 662.0
907 700.0 350.0
908 642.0 460.0
909 459.0 142.0
910 317.0 11.0
911 456.0 210.0
912 355.0 797.0
913 561.0 616.0
914 9.0 513.0
915 199.0 242.0
916 522.0 408.0
917 357.0 821.0
918 617.0 811.0
919 945.0 131.0
920 504.0 583.0
921 427.0 880.0
922 758.0 304.0
923 841.0 905.0
924 855.0 523.0
925 109.0 310.0
926 552.0 524.0
927 770.0 411.0
928 385.0 100.0
929 76.0 533.0
930 57.0 155.0
931 642.0 791.0
932 379.0 147.0
933 657.0 925.0
934 584.0 597.0
935 857.0 322.0
936 710.0 6.0
937 165.0 475.0
938 192.0 493.0
939 153.0 443.0
940 142.0 717.0
941 273.0 146.0
942 638.0 445.0
943 28.0 816.0
944 107.0 765.0
945 766.0 354.0
946 309.0 142.0
947 106.0 385.0
948 574.0 273.0
949 601.0 180.0
950 311.0 411.0
951 193.0 355.0
952 353.0 79.0
953 542.0 375.0
954 563.0 308.0
955 519.0 893.0
956 120.0 331.0
957 379.0 248.0
958 859.0 384.0
959 674.0 120.0
960 326.0 231.0
EOF





